Instance: Data/Instances_txt/inst_100_10_4.txt
SetUpTime: 33.22015881538391

Gurobi 10.0.1 (mac64[x86]) logging started Di  1 Aug 16:45:39 2023

Set parameter LogFile to value "Output/MILP_inst_100_10_4_2023-08-01_16-28-50.txt"
Set parameter TimeLimit to value 2700

Gurobi 10.0.1 (mac64[x86]) logging started Di  1 Aug 16:45:39 2023

Set parameter LogFile to value "Output/MILP_inst_100_10_4_2023-08-01_16-28-50.txt"
Gurobi Optimizer version 10.0.1 build v10.0.1rc0 (mac64[x86])

CPU model: Intel(R) Core(TM) i5-1038NG7 CPU @ 2.00GHz
Thread count: 4 physical cores, 8 logical processors, using up to 8 threads

Optimize a model with 201 rows, 41149 columns and 229284 nonzeros
Model fingerprint: 0x65246476
Variable types: 0 continuous, 41149 integer (0 binary)
Coefficient statistics:
  Matrix range     [1e+00, 1e+00]
  Objective range  [6e+00, 1e+04]
  Bounds range     [1e+00, 1e+00]
  RHS range        [1e+00, 1e+00]
Presolve time: 0.24s
Presolved: 201 rows, 41149 columns, 228991 nonzeros
Variable types: 0 continuous, 41149 integer (41149 binary)

Root relaxation: objective 5.298024e+04, 8277 iterations, 3.90 seconds (6.78 work units)

    Nodes    |    Current Node    |     Objective Bounds      |     Work
 Expl Unexpl |  Obj  Depth IntInf | Incumbent    BestBd   Gap | It/Node Time

     0     0 52980.2396    0  167          - 52980.2396      -     -    4s
     0     0 52980.2843    0  168          - 52980.2843      -     -    4s
     0     0 52980.4675    0  164          - 52980.4675      -     -    4s
     0     0 52980.9843    0  176          - 52980.9843      -     -    4s
     0     0 52981.2086    0  174          - 52981.2086      -     -    4s
     0     0 52981.5679    0  171          - 52981.5679      -     -    4s
     0     0 52982.0271    0  173          - 52982.0271      -     -    4s
     0     0 52982.1508    0  172          - 52982.1508      -     -    4s
     0     0 52982.4981    0  171          - 52982.4981      -     -    4s
     0     0 52982.5047    0  164          - 52982.5047      -     -    4s
     0     0 52982.5261    0  164          - 52982.5261      -     -    5s
     0     0 53263.6154    0  152          - 53263.6154      -     -    6s
     0     0 53305.5348    0  154          - 53305.5348      -     -    7s
     0     0 53309.5562    0  147          - 53309.5562      -     -    7s
     0     0 53309.6610    0  146          - 53309.6610      -     -    7s
     0     0 53309.7034    0  153          - 53309.7034      -     -    7s
     0     0 53416.2535    0  192          - 53416.2535      -     -    9s
     0     0 53416.5108    0  194          - 53416.5108      -     -    9s
     0     0 53416.7942    0  190          - 53416.7942      -     -    9s
     0     0 53416.8629    0  174          - 53416.8629      -     -   10s
     0     0 53417.0072    0  188          - 53417.0072      -     -   10s
     0     0 53417.0583    0  178          - 53417.0583      -     -   10s
     0     0 53417.1306    0  178          - 53417.1306      -     -   10s
     0     0 53417.1661    0  178          - 53417.1661      -     -   10s
     0     0 53417.1804    0  188          - 53417.1804      -     -   10s
     0     0 53417.2186    0  189          - 53417.2186      -     -   10s
     0     0 53417.2207    0  188          - 53417.2207      -     -   10s
     0     0 53418.8673    0  185          - 53418.8673      -     -   10s
     0     0 53419.1476    0  192          - 53419.1476      -     -   11s
     0     0 53419.1476    0  193          - 53419.1476      -     -   11s
H    0     0                    54618.000000 53508.4787  2.03%     -   12s
H    0     0                    54204.000000 53508.4787  1.28%     -   12s
     0     0 53508.6131    0  197 54204.0000 53508.6131  1.28%     -   12s
     0     0 53508.7686    0  192 54204.0000 53508.7686  1.28%     -   12s
     0     0 53509.3518    0  194 54204.0000 53509.3518  1.28%     -   12s
     0     0 53509.5992    0  188 54204.0000 53509.5992  1.28%     -   12s
     0     0 53510.5963    0  188 54204.0000 53510.5963  1.28%     -   12s
     0     0 53511.0116    0  195 54204.0000 53511.0116  1.28%     -   12s
     0     0 53511.9180    0  179 54204.0000 53511.9180  1.28%     -   12s
     0     0 53512.6536    0  191 54204.0000 53512.6536  1.28%     -   12s
     0     0 53513.7711    0  177 54204.0000 53513.7711  1.27%     -   12s
     0     0 53515.1560    0  197 54204.0000 53515.1560  1.27%     -   12s
     0     0 53516.6428    0  184 54204.0000 53516.6428  1.27%     -   12s
H    0     0                    53873.999966 53516.6428  0.66%     -   13s
     0     0 53535.7412    0  203 53874.0000 53535.7412  0.63%     -   13s
     0     0 53536.4205    0  199 53874.0000 53536.4205  0.63%     -   13s
     0     0 53539.4548    0  197 53874.0000 53539.4548  0.62%     -   14s
     0     0 53540.5609    0  195 53874.0000 53540.5609  0.62%     -   14s
     0     0 53541.8833    0  193 53874.0000 53541.8833  0.62%     -   14s
     0     0 53543.3399    0  196 53874.0000 53543.3399  0.61%     -   14s
     0     0 53544.9387    0  195 53874.0000 53544.9387  0.61%     -   14s
     0     0 53545.9192    0  205 53874.0000 53545.9192  0.61%     -   14s
     0     0 53546.3328    0  218 53874.0000 53546.3328  0.61%     -   14s
     0     0 53546.3609    0  195 53874.0000 53546.3609  0.61%     -   14s
     0     0 53546.5739    0  217 53874.0000 53546.5739  0.61%     -   14s
     0     0 53546.5831    0  204 53874.0000 53546.5831  0.61%     -   14s
     0     0 53623.2973    0  212 53874.0000 53623.2973  0.47%     -   14s
     0     0 53623.2973    0  141 53874.0000 53623.2973  0.47%     -   15s
     0     0 53623.2973    0  182 53874.0000 53623.2973  0.47%     -   15s
     0     0 53623.2973    0  183 53874.0000 53623.2973  0.47%     -   15s
     0     0 53623.2973    0  182 53874.0000 53623.2973  0.47%     -   15s
     0     0 53623.2973    0  181 53874.0000 53623.2973  0.47%     -   15s
     0     0 53623.2973    0  182 53874.0000 53623.2973  0.47%     -   15s
     0     0 53623.2973    0  182 53874.0000 53623.2973  0.47%     -   15s
     0     0 53623.2973    0  182 53874.0000 53623.2973  0.47%     -   15s
     0     0 53623.2973    0  180 53874.0000 53623.2973  0.47%     -   15s
     0     0 53623.2973    0  183 53874.0000 53623.2973  0.47%     -   15s
     0     0 53623.2973    0  181 53874.0000 53623.2973  0.47%     -   15s
     0     0 53623.2973    0  182 53874.0000 53623.2973  0.47%     -   15s
     0     0 53623.2973    0  192 53874.0000 53623.2973  0.47%     -   16s
     0     0 53636.1142    0  195 53874.0000 53636.1142  0.44%     -   16s
     0     0 53636.1598    0  195 53874.0000 53636.1598  0.44%     -   16s
     0     0 53636.1736    0  195 53874.0000 53636.1736  0.44%     -   16s
     0     0 53636.2006    0  196 53874.0000 53636.2006  0.44%     -   16s
     0     0 53636.2238    0  196 53874.0000 53636.2238  0.44%     -   16s
     0     0 53636.2258    0  192 53874.0000 53636.2258  0.44%     -   16s
     0     0 53645.7339    0  197 53874.0000 53645.7339  0.42%     -   16s
     0     0 53645.7463    0  193 53874.0000 53645.7463  0.42%     -   16s
     0     0 53648.9610    0  197 53874.0000 53648.9610  0.42%     -   16s
     0     0 53648.9790    0  197 53874.0000 53648.9790  0.42%     -   16s
     0     0 53663.2476    0  223 53874.0000 53663.2476  0.39%     -   16s
     0     0 53663.2476    0  223 53874.0000 53663.2476  0.39%     -   16s
     0     0 53663.2476    0  223 53874.0000 53663.2476  0.39%     -   16s
     0     0 53663.2476    0  223 53874.0000 53663.2476  0.39%     -   16s
     0     0 53663.2476    0  223 53874.0000 53663.2476  0.39%     -   16s
     0     0 53663.2606    0  223 53874.0000 53663.2606  0.39%     -   16s
     0     0 53663.7046    0  223 53874.0000 53663.7046  0.39%     -   16s
     0     0 53664.2262    0  222 53874.0000 53664.2262  0.39%     -   16s
     0     0 53664.8209    0  224 53874.0000 53664.8209  0.39%     -   16s
     0     0 53664.8790    0  223 53874.0000 53664.8790  0.39%     -   16s
     0     0 53664.8812    0  219 53874.0000 53664.8812  0.39%     -   16s
     0     0 53665.0685    0  223 53874.0000 53665.0685  0.39%     -   16s
     0     0 53684.1526    0  172 53874.0000 53684.1526  0.35%     -   16s
     0     0 53684.1526    0  141 53874.0000 53684.1526  0.35%     -   17s
     0     0 53684.1526    0  154 53874.0000 53684.1526  0.35%     -   17s
     0     0 53684.1526    0  176 53874.0000 53684.1526  0.35%     -   18s
     0     0 53685.1962    0  207 53874.0000 53685.1962  0.35%     -   18s
     0     0 53685.2161    0  206 53874.0000 53685.2161  0.35%     -   18s
     0     0 53685.2353    0  208 53874.0000 53685.2353  0.35%     -   18s
     0     0 53685.2353    0  208 53874.0000 53685.2353  0.35%     -   18s
     0     0 53685.2490    0  200 53874.0000 53685.2490  0.35%     -   18s
     0     0 53686.8954    0  215 53874.0000 53686.8954  0.35%     -   18s
     0     0 53686.9799    0  217 53874.0000 53686.9799  0.35%     -   18s
     0     0 53694.4856    0  234 53874.0000 53694.4856  0.33%     -   18s
H    0     0                    53846.000000 53694.4856  0.28%     -   18s
     0     0 53694.5843    0  240 53846.0000 53694.5843  0.28%     -   18s
     0     0 53695.0153    0  244 53846.0000 53695.0153  0.28%     -   18s
     0     0 53695.0153    0  242 53846.0000 53695.0153  0.28%     -   18s
     0     0 53698.0153    0  152 53846.0000 53698.0153  0.27%     -   19s
     0     0 53698.0153    0  178 53846.0000 53698.0153  0.27%     -   19s
     0     0 53698.0153    0  183 53846.0000 53698.0153  0.27%     -   19s
     0     0 53698.0153    0  181 53846.0000 53698.0153  0.27%     -   19s
     0     0 53698.0153    0  183 53846.0000 53698.0153  0.27%     -   19s
     0     0 53698.0153    0  182 53846.0000 53698.0153  0.27%     -   19s
     0     0 53698.0153    0  180 53846.0000 53698.0153  0.27%     -   19s
     0     0 53698.0153    0  183 53846.0000 53698.0153  0.27%     -   19s
     0     0 53698.0153    0  182 53846.0000 53698.0153  0.27%     -   19s
     0     0 53698.0153    0  183 53846.0000 53698.0153  0.27%     -   19s
     0     0 53698.0153    0  183 53846.0000 53698.0153  0.27%     -   19s
     0     0 53698.0153    0  183 53846.0000 53698.0153  0.27%     -   19s
     0     0 53698.0153    0  195 53846.0000 53698.0153  0.27%     -   19s
     0     0 53698.0153    0  170 53846.0000 53698.0153  0.27%     -   19s
     0     0 53698.0153    0  146 53846.0000 53698.0153  0.27%     -   19s
     0     0 53698.0153    0  218 53846.0000 53698.0153  0.27%     -   19s
     0     0 53698.0153    0  217 53846.0000 53698.0153  0.27%     -   19s
     0     0 53698.0153    0  212 53846.0000 53698.0153  0.27%     -   19s
     0     0 53698.0153    0  207 53846.0000 53698.0153  0.27%     -   19s
     0     0 53699.2917    0  222 53846.0000 53699.2917  0.27%     -   19s
     0     0 53699.2923    0  225 53846.0000 53699.2923  0.27%     -   19s
     0     0 53699.6718    0  235 53846.0000 53699.6718  0.27%     -   19s
     0     0 53699.6856    0  234 53846.0000 53699.6856  0.27%     -   19s
     0     0 53699.6863    0  228 53846.0000 53699.6863  0.27%     -   19s
     0     0 53699.6863    0  224 53846.0000 53699.6863  0.27%     -   20s
H    0     0                    53825.000000 53702.4917  0.23%     -   20s
     0     0 53702.4917    0  156 53825.0000 53702.4917  0.23%     -   20s
H    0     0                    53804.000000 53702.4917  0.19%     -   20s
     0     0 53702.4917    0  177 53804.0000 53702.4917  0.19%     -   20s
     0     0 53702.4917    0  177 53804.0000 53702.4917  0.19%     -   20s
     0     0 53702.4917    0  178 53804.0000 53702.4917  0.19%     -   20s
     0     0 53702.4917    0  190 53804.0000 53702.4917  0.19%     -   20s
     0     0 53702.4917    0  175 53804.0000 53702.4917  0.19%     -   20s
     0     0 53702.4917    0  173 53804.0000 53702.4917  0.19%     -   20s
     0     0 53702.4917    0  134 53804.0000 53702.4917  0.19%     -   20s
     0     0 53702.4917    0  170 53804.0000 53702.4917  0.19%     -   20s
     0     0 53702.4917    0  183 53804.0000 53702.4917  0.19%     -   20s
     0     0 53702.4917    0  186 53804.0000 53702.4917  0.19%     -   20s
     0     0 53702.4917    0  186 53804.0000 53702.4917  0.19%     -   20s
     0     0 53702.4917    0  189 53804.0000 53702.4917  0.19%     -   20s
     0     0 53702.4917    0  225 53804.0000 53702.4917  0.19%     -   20s
     0     0 53702.4917    0  223 53804.0000 53702.4917  0.19%     -   20s
     0     0 53702.4917    0  216 53804.0000 53702.4917  0.19%     -   20s
     0     0 53704.6561    0  133 53804.0000 53704.6561  0.18%     -   21s
     0     0 53704.6561    0  140 53804.0000 53704.6561  0.18%     -   21s
     0     0 53710.4710    0  163 53804.0000 53710.4710  0.17%     -   21s
     0     0 53712.4836    0  177 53804.0000 53712.4836  0.17%     -   21s
     0     0 53712.8313    0  174 53804.0000 53712.8313  0.17%     -   21s
     0     0 53712.8313    0  177 53804.0000 53712.8313  0.17%     -   21s
H    0     0                    53770.000000 53712.8313  0.11%     -   21s
*    0     0               0    53768.000000 53768.0000  0.00%     -   21s

Cutting planes:
  Clique: 21
  MIR: 1
  Zero half: 30
  RLT: 69

Explored 1 nodes (40737 simplex iterations) in 21.59 seconds (23.67 work units)
Thread count was 8 (of 8 available processors)

Solution count 8: 53768 53770 53804 ... 54618

Optimal solution found (tolerance 1.00e-04)
Best objective 5.376800000000e+04, best bound 5.376800000000e+04, gap 0.0000%

User-callback calls 3587, time in user-callback 0.01 sec

=========================

OUTPUT STATISTICS
Relaxed: false
Time since start: 55.703107833862305
SetUpTime: 33.22015881538391
Objective value: 53768.0
Number of variables: 41149
Solving time: 22.462976932525635
